%%% Exp_DoseResponse conditions	%%%
%% Description: same data as in pl-example01, but with a different plate size
%% so we can test having no edge.
%% Produces 4 plates.
%% 2020/Nov/19: It takes about 4s 459msec

%% Plate dimentions: (this is a 96-well plate)
num_rows = 6; %% height
num_cols = 10; %% width


horizontal_cell_lines = 1;
vertical_cell_lines = 1;

allow_empty_wells = false;

size_empty_edge = 0;

replicates	 = 2;


%%% Compounds %%%
compounds = 10; %% number of drugs/compounds
compound_concentrations	 = 8; 

compound_names = ["comp\(i)" | i in 1..compounds];
compound_concentration_names = ["0.3", "1", "3", "5", "10", "15", "30", "100"];
compound_concentration_indicators = ["" | i in 1..compound_concentrations]; 


%%% Combinations %%%
combinations = 	0;
combination_names = [];
combination_concentration_names = [];
combination_concentrations = 0;


%%% Controls %%%
num_controls = 4;
control_replicates = [32,16,16,16];
%control_replicates = [16,16,16,16,16];
control_concentrations = 1;
control_names = ["pos","neg","blank","dmso"];
control_concentration_names =  ["cont-conc\(i)" | i in 1..control_concentrations];  
  
%% Media (blank) controls %%  
blanks = 0;
blanks_name = "";    
